NAME : sim81.96613.tour
COMMENT : Length = 96613
COMMENT : Found by LKH [Keld Helsgaun] Sun Sep 16 23:22:22 2018
TYPE : TOUR
DIMENSION : 81
TOUR_SECTION
1
5
39
68
53
51
18
69
58
26
50
71
6
54
79
21
2
32
81
78
72
37
60
74
27
3
31
17
70
30
15
4
66
55
57
41
25
29
48
52
80
65
8
9
35
22
24
14
36
11
34
62
23
13
10
67
38
42
75
44
77
20
64
43
61
73
59
33
45
49
46
16
76
28
19
47
12
7
56
63
40
-1
EOF
